/* Objective function */
min: - 0.0054fpdi - 0.0054fpdo + 0.05apdi + 0.05apdo + 0.0002pi + 0.0002po - 0.5fsi - 0.5fso;

apdi = 0.0 hi + 0.0 li + 12.60397 ri + -0.02302 ci + -1.91014 si + 0.0 ti + 0.11034 fTempIi + 0.00714 ami + -153.39695;
asi = 0.0 hi + -0.0 li + -0.00011 ri + -0.00022 ci + -4e-05 si + -0.0 ti + -0.00019 fTempIi + 7e-05 ami + 0.00908;
aTempOi = 0.0 hi + 0.0 li + 0.27758 ri + -0.04368 ci + -0.0569 si + -0.0 ti + 0.7917 fTempIi + -0.00021 ami + 6.81584;
fpdi = 0.0 hi + -0.0 li + 34.94498 ri + -66.81389 ci + -0.079 si + -0.0 ti + -1.80897 fTempIi + 0.00029 ami + 964.87195;
fsi = 0.0 hi + -0.0 li + -0.00027 ri + -0.11892 ci + 6e-05 si + -0.0 ti + 0.00101 fTempIi + -0.0 ami + 3.32185;
fTempOi = 0.0 hi + -0.0 li + -0.27258 ri + 0.04476 ci + 0.05626 si + 0.0 ti + 0.23192 fTempIi + -0.00019 ami + 9.96617;
pi = 0.0 hi + 0.0 li + 310.9 ri + 3.16667 ci + -27.39571 si + 0.0 ti + 0.0 fTempIi + -0.0 ami + 1050.23095;

apdo = 0.0 ho + 0.0 lo + 10.71577 ro + 0.00357 co + -1.49629 so + 0.0 to + 0.12102 fTempIo + 0.00638 amo + -122.9973;
aso = 0.0 ho + -0.0 lo + -0.0 ro + -0.0 co + 0.0 so + 0.0 to + -0.0 fTempIo + 7e-05 amo + -0.00214;
aTempOo = 0.0 ho + 0.0 lo + -0.30455 ro + 0.0468 co + 0.04695 so + 0.0 to + 0.76192 fTempIo + 0.00021 amo + -0.30405;
fpdo = 0.0 ho + -0.0 lo + 34.11707 ro + -66.52393 co + 0.06425 so + 0.0 to + -1.81961 fTempIo + -0.00032 amo + 959.4028;
fso = 0.0 ho + -0.0 lo + 0.00026 ro + -0.11883 co + -4e-05 so + 0.0 to + 0.00113 fTempIo + 0.0 amo + 3.31921;
fTempOo = 0.0 ho + 0.0 lo + 0.29713 ro + -0.04655 co + -0.04572 so + 0.0 to + 0.24992 fTempIo + 0.00021 amo + 12.27179;
po = 0.0 ho + 0.0 lo + 387.375 ro + 3.15 co + -39.422 so + 0.0 to + -0.0 fTempIo + 0.0 amo + 2006.74;

/* Variable bounds */
aTempOi > 18.6;
1 =r6i + r8i + r10i + r12i + r14i;
ri =6r6i + 8r8i + 10r10i + 12r12i + 14r14i;
1 =s25i + s30i + s40i;
si =25s25i + 30s30i + 40s40i;
ti = 2;
apdi > 100;
apdi < 300;
asi > 0;
asi < 3;
aTempOi > 5;
aTempOi < 25;
fpdi > 100;
fpdi < 300;
fsi > 0;
fsi < 1.25;
fTempOi > 5;
fTempOi < 25;
pi > 0;
ri > 6;
ri < 14;
ci > 1;
ci < 17;
si > 25;
si < 60;
ti > 1;
ti < 3;
fTempIi > 5;
fTempIi < 25;

/* aTempOo < 11.4; */
1 =r6o + r8o + r10o + r12o + r14o;
ro =6r6o + 8r8o + 10r10o + 12r12o + 14r14o;
1 =s30o + s40o + s50o + s60o;
so =30s30o + 40s40o + 50s50o + 60s60o;
to = 3;
apdo > 100;
apdo < 300;
aso > 0;
aso < 3;
aTempOo > 5;
aTempOo < 25;
fpdo > 100;
fpdo < 300;
fso > 0;
fso < 1.25;
fTempOo > 5;
fTempOo < 25;
po > 0;
ro > 6;
ro < 14;
co > 1;
co < 17;
so > 25;
so < 60;
to > 1;
to < 3;
fTempIo > 5;
fTempIo < 25;
int hi,li,si,ti,ci,ri,ami;
int ho,lo,so,to,co,ro,amo;
bin s25i,s30i,s40i,s50i,s60i,r6i,r8i,r10i,r12i,r14i;
bin s25o,s30o,s40o,s50o,s60o,r6o,r8o,r10o,r12o,r14o;
